59  59  59  59  -1  
40  40  40  40  -1  
27  27  27  27  -1  
50  50  50  50  -1  
37  37  37  37  -1  
62  62  62  62  -1  
50  50  50  50  -1  
73  73  73  73  -1  
54  54  54  54  -1  
44  44  44  44  -1  
49  49  49  49  -1  
68  68  68  68  -1  
44  44  44  44  -1  
34  34  34  34  -1  
67  67  67  67  -1  
